f:19627773
solution:
30 69 11 40 172 175 193 163 61 83 23 29 37 96 63 72 10 143 140 123 196 186 81 188 109 28 125 102 91 116 113 1 131 42 16 151 150 82 164 142 38 108 166 26 13 62 99 22 57 118 177 136 173 192 190 86 24 58 111 156 145 183 124 78 114 70 53 169 18 54 95 88 121 153 34 87 105 198 31 168 137 159 73 33 138 44 182 165 71 19 187 115 132 148 167 110 67 6 170 74 154 195 146 14 0 45 199 36 112 197 180 92 90 56 17 120 21 178 55 98 84 157 77 185 130 174 27 141 65 68 162 43 158 176 129 134 160 155 93 75 107 9 49 3 25 119 104 191 128 2 76 52 189 59 126 7 101 100 133 4 103 12 144 80 66 97 184 8 147 179 20 47 5 48 35 50 181 127 41 94 171 79 161 60 51 139 135 122 152 117 32 89 46 106 15 85 39 149 194 64 
